Using license file /home/benedond/gurobi.lic
Using gurobi.env file
Set parameter Threads to value 1
Academic license - for non-commercial use only
Changed value of parameter TimeLimit to 300.0
   Prev: inf  Min: 0.0  Max: inf  Default: inf
Gurobi Optimizer version 9.0.1 build v9.0.1rc0 (linux64)
Optimize a model with 7825 rows, 7524 columns and 36948 nonzeros
Model fingerprint: 0x1bd9b16d
Variable types: 120 continuous, 7404 integer (7404 binary)
Coefficient statistics:
  Matrix range     [2e-01, 5e+02]
  Objective range  [5e-03, 2e-01]
  Bounds range     [1e+00, 1e+00]
  RHS range        [1e+00, 3e+03]
Found heuristic solution: objective 4.5500764
Presolve removed 150 rows and 126 columns
Presolve time: 0.12s
Presolved: 7675 rows, 7398 columns, 36413 nonzeros
Variable types: 120 continuous, 7278 integer (7278 binary)

Root relaxation: objective 1.867543e+00, 8011 iterations, 0.62 seconds

    Nodes    |    Current Node    |     Objective Bounds      |     Work
 Expl Unexpl |  Obj  Depth IntInf | Incumbent    BestBd   Gap | It/Node Time

     0     0    1.86754    0  376    4.55008    1.86754  59.0%     -    0s
H    0     0                       4.3336871    1.86754  56.9%     -    0s
H    0     0                       3.6868970    1.86754  49.3%     -    1s
H    0     0                       3.3272023    1.86754  43.9%     -    2s
     0     0    1.93929    0  363    3.32720    1.93929  41.7%     -    2s
     0     0    1.94284    0  332    3.32720    1.94284  41.6%     -    3s
     0     0    2.06056    0  354    3.32720    2.06056  38.1%     -    3s
     0     0    2.06263    0  323    3.32720    2.06263  38.0%     -    3s
     0     0    2.13736    0  401    3.32720    2.13736  35.8%     -    4s
     0     0    2.16009    0  392    3.32720    2.16009  35.1%     -    4s
     0     0    2.16366    0  337    3.32720    2.16366  35.0%     -    4s
     0     0    2.16391    0  333    3.32720    2.16391  35.0%     -    4s
     0     0    2.16395    0  333    3.32720    2.16395  35.0%     -    4s
     0     0    2.19162    0  336    3.32720    2.19162  34.1%     -    5s
H    0     0                       3.1386565    2.19162  30.2%     -    9s
     0     0    2.20757    0  353    3.13866    2.20757  29.7%     -   10s
     0     0    2.21522    0  347    3.13866    2.21522  29.4%     -   10s
     0     0    2.21593    0  334    3.13866    2.21593  29.4%     -   10s
     0     0    2.21651    0  308    3.13866    2.21651  29.4%     -   10s
     0     0    2.21662    0  333    3.13866    2.21662  29.4%     -   10s
     0     0    2.23269    0  390    3.13866    2.23269  28.9%     -   11s
     0     0    2.23676    0  393    3.13866    2.23676  28.7%     -   11s
     0     0    2.23814    0  412    3.13866    2.23814  28.7%     -   11s
     0     0    2.23845    0  404    3.13866    2.23845  28.7%     -   11s
     0     0    2.23855    0  422    3.13866    2.23855  28.7%     -   11s
     0     0    2.25013    0  392    3.13866    2.25013  28.3%     -   11s
     0     0    2.25300    0  393    3.13866    2.25300  28.2%     -   12s
     0     0    2.25514    0  377    3.13866    2.25514  28.1%     -   12s
     0     0    2.25583    0  375    3.13866    2.25583  28.1%     -   12s
     0     0    2.25630    0  448    3.13866    2.25630  28.1%     -   12s
     0     0    2.25643    0  408    3.13866    2.25643  28.1%     -   12s
     0     0    2.26558    0  480    3.13866    2.26558  27.8%     -   13s
     0     0    2.26704    0  391    3.13866    2.26704  27.8%     -   13s
     0     0    2.26742    0  451    3.13866    2.26742  27.8%     -   13s
     0     0    2.26754    0  440    3.13866    2.26754  27.8%     -   13s
     0     0    2.27468    0  453    3.13866    2.27468  27.5%     -   13s
     0     0    2.27656    0  458    3.13866    2.27656  27.5%     -   14s
     0     0    2.27687    0  459    3.13866    2.27687  27.5%     -   14s
     0     0    2.27702    0  451    3.13866    2.27702  27.5%     -   14s
     0     0    2.28136    0  480    3.13866    2.28136  27.3%     -   14s
     0     0    2.28346    0  496    3.13866    2.28346  27.2%     -   15s
     0     0    2.28421    0  499    3.13866    2.28421  27.2%     -   15s
     0     0    2.28437    0  469    3.13866    2.28437  27.2%     -   15s
     0     0    2.28937    0  400    3.13866    2.28937  27.1%     -   16s
     0     0    2.29105    0  470    3.13866    2.29105  27.0%     -   16s
     0     0    2.29159    0  426    3.13866    2.29159  27.0%     -   16s
     0     0    2.29204    0  459    3.13866    2.29204  27.0%     -   16s
     0     0    2.29211    0  468    3.13866    2.29211  27.0%     -   16s
     0     0    2.29483    0  448    3.13866    2.29483  26.9%     -   17s
     0     0    2.29588    0  417    3.13866    2.29588  26.9%     -   17s
     0     0    2.29625    0  462    3.13866    2.29625  26.8%     -   17s
     0     0    2.29642    0  440    3.13866    2.29642  26.8%     -   17s
     0     0    2.30032    0  441    3.13866    2.30032  26.7%     -   18s
H    0     0                       3.0607252    2.30032  24.8%     -   34s
     0     0    2.30142    0  531    3.06073    2.30142  24.8%     -   34s
     0     0    2.30223    0  487    3.06073    2.30223  24.8%     -   35s
     0     0    2.30246    0  530    3.06073    2.30246  24.8%     -   35s
     0     0    2.30490    0  491    3.06073    2.30490  24.7%     -   35s
     0     0    2.30581    0  450    3.06073    2.30581  24.7%     -   36s
     0     0    2.30643    0  534    3.06073    2.30643  24.6%     -   36s
     0     0    2.30661    0  484    3.06073    2.30661  24.6%     -   36s
     0     0    2.30870    0  521    3.06073    2.30870  24.6%     -   37s
     0     0    2.31019    0  519    3.06073    2.31019  24.5%     -   37s
     0     0    2.31053    0  479    3.06073    2.31053  24.5%     -   37s
     0     0    2.31072    0  486    3.06073    2.31072  24.5%     -   37s
     0     0    2.31371    0  465    3.06073    2.31371  24.4%     -   38s
     0     0    2.31484    0  549    3.06073    2.31484  24.4%     -   38s
     0     0    2.31528    0  557    3.06073    2.31528  24.4%     -   38s
     0     0    2.31559    0  544    3.06073    2.31559  24.3%     -   39s
     0     0    2.31722    0  594    3.06073    2.31722  24.3%     -   39s
     0     0    2.31776    0  523    3.06073    2.31776  24.3%     -   39s
     0     0    2.31793    0  526    3.06073    2.31793  24.3%     -   40s
     0     0    2.31971    0  588    3.06073    2.31971  24.2%     -   40s
     0     0    2.31971    0  588    3.06073    2.31971  24.2%     -   46s
     0     2    2.31971    0  588    3.06073    2.31971  24.2%     -   46s
     7     9    2.32276    4  529    3.06073    2.31977  24.2%   704   50s
    28    30    2.32917   20  460    3.06073    2.31977  24.2%   602   55s
    53    55    2.34368   43  384    3.06073    2.31977  24.2%   551   60s
    82    84    2.35746   69  374    3.06073    2.31977  24.2%   530   65s
   119   121    2.38167  102  386    3.06073    2.31977  24.2%   503   70s
   148   150    2.40394  126  318    3.06073    2.31977  24.2%   532   75s
H  186   186                       3.0187672    2.31977  23.2%   529   90s
   223   225    2.47237  190  343    3.01877    2.31977  23.2%   525   95s
   266   268    2.63149  222  353    3.01877    2.31977  23.2%   536  100s
   312   314    2.69021  258  188    3.01877    2.31977  23.2%   522  105s
H  397   395                       2.9954695    2.31977  22.6%   468  115s
   496   486    2.96465  399   98    2.99547    2.31977  22.6%   431  120s
H  518   484                       2.9694924    2.32013  21.9%   417  127s
   519   485    2.51033  201  588    2.96949    2.32013  21.9%   417  131s
   522   487    2.47255  191  265    2.96949    2.32013  21.9%   414  135s
   527   490    2.87338  374  580    2.96949    2.32013  21.9%   410  140s
   532   494    2.34631   49  496    2.96949    2.33133  21.5%   406  145s
   537   497    2.63784  232  532    2.96949    2.34004  21.2%   403  150s
H  539   472                       2.8906336    2.34439  18.9%   401  175s
   544   476    2.84430  358  604    2.89063    2.34934  18.7%   397  180s
   548   478    2.64546  240  655    2.89063    2.35463  18.5%   395  185s
   550   480    2.35891   75  620    2.89063    2.35710  18.5%   393  190s
   553   482    2.36029   29  574    2.89063    2.36029  18.3%   391  196s
   556   484    2.61346  204  579    2.89063    2.36366  18.2%   389  200s
   560   486    2.42426  144  627    2.89063    2.36689  18.1%   386  205s
   564   489    2.72657  266  600    2.89063    2.36896  18.0%   383  210s
   567   491    2.37079   84  771    2.89063    2.37033  18.0%   381  215s
   571   494    2.64349  237  658    2.89063    2.37222  17.9%   379  221s
   574   496    2.71431  262  714    2.89063    2.37393  17.9%   377  225s
   578   498    2.75407  292  729    2.89063    2.37566  17.8%   374  231s
   581   500    2.66952  252  727    2.89063    2.37659  17.8%   372  235s
   585   503    2.37754   51  749    2.89063    2.37754  17.8%   370  240s
   588   505    2.38169  103  669    2.89063    2.37844  17.7%   368  245s
   592   508    2.83619  300  686    2.89063    2.37918  17.7%   365  251s
   595   510    2.44513  150  820    2.89063    2.38011  17.7%   363  255s
   598   512    2.38173   44  740    2.89063    2.38173  17.6%   362  260s
   601   514    2.41293  136  698    2.89063    2.38272  17.6%   360  265s
   604   516    2.38353   70  753    2.89063    2.38353  17.5%   358  270s
   608   518    2.38458  101  725    2.89063    2.38458  17.5%   356  276s
   611   520    2.38545   57  809    2.89063    2.38545  17.5%   354  280s
   615   523    2.68877  258  775    2.89063    2.38660  17.4%   352  285s
   618   525    2.45835  173  811    2.89063    2.38753  17.4%   350  290s
   621   527    2.38824   34  760    2.89063    2.38824  17.4%   348  295s

Cutting planes:
  Gomory: 3
  Cover: 27
  Implied bound: 15
  Projected implied bound: 6
  Clique: 23
  MIR: 377
  StrongCG: 2
  Flow cover: 1225
  GUB cover: 2
  Mod-K: 1
  RLT: 24
  Relax-and-lift: 509

Explored 623 nodes (516484 simplex iterations) in 300.00 seconds
Thread count was 1 (of 4 available processors)

Solution count 10: 2.89063 2.96949 2.99547 ... 4.55008

Time limit reached
Best objective 2.890633597473e+00, best bound 2.388687395076e+00, gap 17.3646%
